NAME : gtsp150.1741131_8697092.tour
COMMENT : Cost = 1741131_8697092
COMMENT : Found by LKH-3 [Keld Helsgaun] Tue Mar 15 23:34:24 2022
TYPE : TOUR
DIMENSION : 154
TOUR_SECTION
1
87
76
73
3
62
149
125
22
104
4
150
115
44
71
45
128
68
119
91
106
13
74
123
31
145
136
112
64
21
88
94
10
113
48
154
82
95
107
5
100
143
18
142
85
65
132
137
102
114
99
19
29
86
108
70
135
50
55
58
141
83
75
97
7
103
151
59
15
122
23
38
41
57
60
66
17
140
117
27
129
144
147
49
72
14
80
78
79
153
30
96
52
111
105
134
109
43
12
24
118
127
69
36
61
11
148
130
39
101
116
67
32
131
77
133
16
121
63
34
152
89
35
93
126
33
92
54
46
138
51
53
40
139
47
120
42
9
28
6
37
2
81
110
20
25
90
56
26
146
124
8
84
98
-1
EOF
